
Log started (V12.10.0.0) Fri Apr  9 00:25:40 2021


Problem 'asset.lp' read.
Read time = 0.00 sec. (0.14 ticks)
New value for default parallel thread count: 1
New value for time limit in seconds: 200
Version identifier: 12.10.0.0 | 2019-11-26 | 843d4de
CPXPARAM_Threads                                 1
CPXPARAM_TimeLimit                               200
Found incumbent of value -0.878124 after 0.00 sec. (0.07 ticks)
Tried aggregator 4 times.
MIP Presolve eliminated 400 rows and 255 columns.
MIP Presolve modified 1228 coefficients.
Aggregator did 371 substitutions.
Reduced MIP has 573 rows, 579 columns, and 2460 nonzeros.
Reduced MIP has 482 binaries, 64 generals, 0 SOSs, and 0 indicators.
Presolve time = 0.01 sec. (6.22 ticks)
Probing fixed 205 vars, tightened 26 bounds.
Probing time = 0.00 sec. (1.29 ticks)
Cover probing fixed 0 vars, tightened 56 bounds.
Tried aggregator 1 time.
MIP Presolve eliminated 297 rows and 284 columns.
MIP Presolve modified 8 coefficients.
Reduced MIP has 276 rows, 286 columns, and 878 nonzeros.
Reduced MIP has 224 binaries, 29 generals, 0 SOSs, and 0 indicators.
Presolve time = 0.00 sec. (1.09 ticks)
Probing time = 0.00 sec. (0.34 ticks)
Tried aggregator 1 time.
Detecting symmetries...
MIP Presolve modified 12 coefficients.
Reduced MIP has 276 rows, 286 columns, and 878 nonzeros.
Reduced MIP has 224 binaries, 29 generals, 0 SOSs, and 0 indicators.
Presolve time = 0.00 sec. (0.62 ticks)
Probing time = 0.00 sec. (0.33 ticks)
Clique table members: 172.
MIP emphasis: balance optimality and feasibility.
MIP search method: dynamic search.
Parallel mode: none, using 1 thread.
Root relaxation solution time = 0.00 sec. (1.47 ticks)

        Nodes                                         Cuts/
   Node  Left     Objective  IInf  Best Integer    Best Bound    ItCnt     Gap

*     0+    0                           -0.8781      351.8719              --- 
      0     0      159.8930    43       -0.8781      159.8930      165     --- 
      0     0      155.3220    43       -0.8781      Cuts: 54      211     --- 
      0     0      154.7621    43       -0.8781      Cuts: 22      245     --- 
      0     0      154.7607    43       -0.8781      Cuts: 21      273     --- 
*     0+    0                          137.6993      154.7607            12.39%
      0     0      154.6945    43      137.6993      Cuts: 13      291   12.34%
*     0+    0                          152.8797      154.6945             1.19%
Detecting symmetries...

Repeating presolve.
Tried aggregator 2 times.
MIP Presolve eliminated 137 rows and 140 columns.
MIP Presolve modified 14 coefficients.
Aggregator did 6 substitutions.
Reduced MIP has 133 rows, 140 columns, and 418 nonzeros.
Reduced MIP has 107 binaries, 14 generals, 0 SOSs, and 0 indicators.
Presolve time = 0.00 sec. (0.81 ticks)
Probing fixed 1 vars, tightened 1 bounds.
Probing time = 0.00 sec. (0.13 ticks)
Cover probing fixed 0 vars, tightened 3 bounds.
Tried aggregator 2 times.
MIP Presolve eliminated 9 rows and 4 columns.
MIP Presolve modified 25 coefficients.
Aggregator did 1 substitutions.
Reduced MIP has 123 rows, 135 columns, and 393 nonzeros.
Reduced MIP has 103 binaries, 14 generals, 0 SOSs, and 0 indicators.
Presolve time = 0.00 sec. (0.43 ticks)
Probing time = 0.00 sec. (0.12 ticks)
Tried aggregator 1 time.
Detecting symmetries...
Reduced MIP has 123 rows, 135 columns, and 393 nonzeros.
Reduced MIP has 103 binaries, 14 generals, 0 SOSs, and 0 indicators.
Presolve time = 0.00 sec. (0.27 ticks)
Represolve time = 0.00 sec. (2.66 ticks)
Probing time = 0.00 sec. (0.12 ticks)
Clique table members: 100.
MIP emphasis: balance optimality and feasibility.
MIP search method: dynamic search.
Parallel mode: none, using 1 thread.
Root relaxation solution time = 0.00 sec. (1.33 ticks)

        Nodes                                         Cuts/
   Node  Left     Objective  IInf  Best Integer    Best Bound    ItCnt     Gap

*     0+    0                          152.8797      154.6945             1.19%
      0     0      154.6945    46      152.8797      154.6945      423    1.19%
      0     0      154.5574    46      152.8797      Cuts: 14      450    1.10%
      0     0      154.5203    46      152.8797      Cuts: 26      477    1.07%
      0     0      154.4813    46      152.8797       Cuts: 8      490    1.05%
      0     0      154.4803    46      152.8797      Cuts: 13      504    1.05%
      0     0      154.3757    46      152.8797       Cuts: 7      523    0.98%
Detecting symmetries...
      0     0      154.3193    46      152.8797      Cuts: 19      539    0.94%
*     0+    0                          152.8802      154.3193             0.94%
      0     0      154.3042    46      152.8802      Cuts: 25      550    0.93%
      0     0      154.3013    46      152.8802      Cuts: 29      559    0.93%
*     0+    0                          152.8802      154.3013             0.93%
*     0+    0                          152.8803      154.3013             0.93%
Detecting symmetries...
      0     2      154.3013    41      152.8803      154.3013      559    0.93%
Elapsed time = 0.06 sec. (47.16 ticks, tree = 0.01 MB, solutions = 5)

Clique cuts applied:  6
Implied bound cuts applied:  17
Flow cuts applied:  2
Mixed integer rounding cuts applied:  1
Zero-half cuts applied:  11
Lift and project cuts applied:  2
Gomory fractional cuts applied:  6

Root node processing (before b&c):
  Real time             =    0.06 sec. (47.23 ticks)
Sequential b&c:
  Real time             =    0.01 sec. (4.49 ticks)
                          ------------
Total (root+branch&cut) =    0.07 sec. (51.72 ticks)

Solution pool: 6 solutions saved.

MIP - Integer optimal, tolerance (0.0001/1e-06):  Objective =  1.5288025675e+02
Current MIP best bound =  1.5288198666e+02 (gap = 0.00172992, 0.00%)
Solution time =    0.07 sec.  Iterations = 811  Nodes = 24 (6)
Deterministic time = 51.72 ticks  (761.53 ticks/sec)


Incumbent solution
Variable Name           Solution Value
F                           160.000000
f1                            0.899743
f2                            6.220000
y45                           1.000000
y195                          1.000000
y72                           1.000000
y181                          1.000000
y208                          1.000000
y103                          1.000000
y167                          1.000000
y124                          1.000000
y21                           1.000000
s1                            6.000000
s16                           6.000000
s45                           6.637515
s65                           6.000000
s76                           6.000000
s93                           6.000000
s104                          6.000000
s118                          6.000000
s149                          6.000000
s207                          6.000000
s108                          6.030000
s119                          6.050000
s182                          6.110000
s195                          6.800261
s37                           6.220000
s91                           6.220000
s72                           6.616425
s181                          6.653111
s62                           6.270000
s75                           6.280000
s208                          7.095129
s27                           6.290000
s29                           6.290000
s204                          6.290000
s98                           6.330000
s78                           6.380000
s103                          6.865339
s146                          6.470000
s128                          6.480000
s5                            6.540000
s44                           6.580000
s80                           6.630000
s179                          6.630000
s167                          7.495739
s143                          6.740000
s186                          6.770000
s196                          6.800000
s124                          7.836526
s21                           7.840845
x52x181x1                     1.000000
x18x167x1                     1.000000
x18x21x1                      1.000000
x137x195x1                    1.000000
x191x72x1                     1.000000
x8x167x2                      1.000000
x170x195x2                    1.000000
x170x72x2                     1.000000
x101x208x2                    1.000000
x101x124x2                    1.000000
x52x181x3                     1.000000
x88x45x3                      1.000000
x88x103x3                     1.000000
x8x208x3                      1.000000
x137x103x3                    1.000000
x191x45x3                     1.000000
x45x0x3                       2.000000
x195x0x1                      1.000000
x195x0x2                      1.000000
x72x0x1                       1.000000
x72x124x2                     1.000000
x181x21x1                     1.000000
x181x0x3                      1.000000
x208x0x2                      1.000000
x208x0x3                      1.000000
x103x0x3                      2.000000
x167x0x1                      1.000000
x167x0x2                      1.000000
x124x0x2                      2.000000
x21x0x1                       2.000000
s52                           5.014258
z52z181z1                     1.000000
z52z181z3                     1.000000
z52z21z1                      1.000000
s88                           5.136964
z88z45z3                      1.000000
z88z103z3                     1.000000
s18                           5.641359
z18z167z1                     1.000000
z18z21z1                      1.000000
s8                            5.590000
z8z208z3                      1.000000
z8z167z2                      1.000000
s170                          4.896350
z170z195z2                    1.000000
z170z72z2                     1.000000
z170z124z2                    1.000000
s137                          4.938390
z137z195z1                    1.000000
z137z103z3                    1.000000
s101                          5.047250
z101z208z2                    1.000000
z101z124z2                    1.000000
s191                          4.473200
z191z45z3                     1.000000
z191z72z1                     1.000000
z191z21z1                     1.000000
z119z124z2                    1.000000
z72z124z2                     1.000000
z181z21z1                     1.000000
All other variables in the range 1-1209 are 0.
